NAME: generated_7_sym_1_60_UniformDistrib_noSparse.tsp
TYPE: TSP
COMMENT: Test case generated with custom generator!
DIMENSION: 7
EDGE_WEIGHT_TYPE: EXPLICIT
EDGE_WEIGHT_FORMAT: FULL_MATRIX
DISPLAY_DATA_TYPE: TWOD_DISPLAY
EDGE_WEIGHT_SECTION
0 17 47 26 3 35 16 
17 0 48 16 5 60 5 
47 48 0 51 44 55 15 
26 16 51 0 55 56 6 
3 5 44 55 0 53 56 
35 60 55 56 53 0 14 
16 5 15 6 56 14 0 
